; benchmark generated from python API
(set-info :status unknown)
(declare-datatypes ((IntState 0)) (((Mk1 (val1 Int)) (Mk2 (val2 Int)))))
 (declare-fun c_main_~i~6 () Int)
(declare-fun c_main_~j~6 () Int)
(declare-fun c_main_~k~6 () Int)
(assert
 (let (($x98 (<= c_main_~i~6 3)))
 (let (($x156 (exists ((v_nnf_96_st IntState) (val!73 Int) )(let ((?x56 (val2 v_nnf_96_st)))
 (let (($x121 (<= ?x56 4)))
 (let (($x173 (and (<= (+ ?x56 2) c_main_~k~6) (<= c_main_~j~6 (+ (* 2 ?x56) 2)) $x121)))
 (let (($x52 (not (= v_nnf_96_st (Mk1 val!73)))))
 (and $x52 $x173))))))
 ))
 (let (($x109 (<= c_main_~i~6 4)))
 (let (($x120 (<= c_main_~j~6 (+ (* 2 c_main_~i~6) 1))))
 (let (($x5 (exists ((v_nnf_98 Int) )(let (($x91 (<= c_main_~j~6 (+ (* 2 v_nnf_98) 2))))
 (let (($x78 (<= v_nnf_98 4)))
 (and (<= (+ v_nnf_98 3) c_main_~k~6) $x78 $x91))))
 ))
 (let (($x151 (<= c_main_~i~6 2)))
 (let (($x106 (<= c_main_~j~6 (+ (* 2 c_main_~i~6) 2))))
 (and (and $x120 $x109 $x106 $x151 $x98 $x5) (not (and $x120 $x109 $x156 $x98)))))))))))
(check-sat)
